************************************************************************
file with basedata            : mm46_.bas
initial value random generator: 1278534540
************************************************************************
projects                      :  1
jobs (incl. supersource/sink ):  12
horizon                       :  82
RESOURCES
  - renewable                 :  2   R
  - nonrenewable              :  2   N
  - doubly constrained        :  0   D
************************************************************************
PROJECT INFORMATION:
pronr.  #jobs rel.date duedate tardcost  MPM-Time
    1     10      0       11        0       11
************************************************************************
PRECEDENCE RELATIONS:
jobnr.    #modes  #successors   successors
   0        1          3           1   2   3
   1        3          1          10
   2        3          3           6   7   8
   3        3          3           4   7  10
   4        3          1           5
   5        3          2           8   9
   6        3          1          10
   7        3          1           9
   8        3          1          11
   9        3          1          11
  10        3          1          11
  11        1          0        
************************************************************************
REQUESTS/DURATIONS:
jobnr. mode duration  R 1  R 2  R 3  R 4  E(W 1)  E(W 2)  E(W 3)
------------------------------------------------------------------------
  0      1     0       0    0    0    0     0       0       0
  1      1     6       6    3    7    6    54      42      36
  2      1     4       5    4    7    3    36      28      12
  3      1     1       9    7    8    7    16       8       7
  4      1     4       8    5    4    7    52      16      28
  5      1     2       8    8    7    3    32      14       6
  6      1     2       7    8    5    2    30      10       4
  7      1     1       7    4    8    8    11       8       8
  8      1     4       6    8    5    6    56      20      24
  9      1     3       9    9    8    5    54      24      15
 10      1     3       9    7    7    4    48      21      12
 11      1     0       0    0    0    0     0       0       0
************************************************************************
RESOURCEAVAILABILITIES:
  R 1  R 2  R 3
   35   53   45
************************************************************************
RESOURCE LIMITS:
jobnr.  l(R 1)  u(R 1)  l(R 2)  u(R 2)  l(R 3)  u(R 3)
------------------------------------------------------------------------
  0        0       0       0       0       0       0
  1        5       9       4       7       3       6
  2        5       9       4       7       2       3
  3        9      16       4       8       4       7
  4        7      13       2       4       4       7
  5        8      16       4       7       2       3
  6        8      15       3       5       1       2
  7        6      11       4       8       4       8
  8        7      14       3       5       3       6
  9       10      18       4       8       3       5
 10        9      16       4       7       2       4
 11        0       0       0       0       0       0
************************************************************************
SCENARIOS:
------------------------------------------------------------------------
RESOURCE k = 1
s = 1: (0, 47, 29, 13, 28, 40, 25, 11, 58, 63, 32, 0)
s = 2: (0, 57, 28, 21, 47, 28, 24, 7, 79, 31, 69, 0)
s = 3: (0, 68, 30, 10, 72, 33, 23, 8, 31, 50, 50, 0)
s = 4: (0, 63, 44, 14, 54, 26, 19, 13, 55, 58, 48, 0)
s = 5: (0, 31, 36, 15, 59, 24, 28, 9, 42, 54, 56, 0)
s = 6: (0, 54, 50, 14, 55, 22, 40, 8, 62, 43, 28, 0)
s = 7: (0, 92, 44, 15, 47, 27, 19, 14, 63, 69, 58, 0)
s = 8: (0, 61, 46, 10, 66, 26, 22, 13, 52, 66, 69, 0)
s = 9: (0, 53, 26, 12, 56, 38, 19, 8, 83, 39, 52, 0)
s = 10: (0, 70, 43, 11, 49, 34, 21, 9, 69, 35, 48, 0)
s = 11: (0, 44, 50, 16, 55, 32, 43, 20, 67, 92, 52, 0)
s = 12: (0, 56, 50, 15, 42, 27, 25, 12, 60, 49, 32, 0)
s = 13: (0, 46, 41, 18, 45, 19, 51, 12, 53, 48, 74, 0)
s = 14: (0, 94, 34, 13, 54, 25, 36, 19, 58, 54, 27, 0)
s = 15: (0, 69, 43, 21, 48, 27, 33, 15, 65, 46, 48, 0)
s = 16: (0, 55, 41, 24, 50, 47, 23, 10, 50, 38, 93, 0)
s = 17: (0, 47, 32, 13, 59, 39, 21, 11, 52, 45, 79, 0)
s = 18: (0, 43, 32, 13, 45, 22, 34, 17, 76, 49, 42, 0)
s = 19: (0, 45, 37, 15, 74, 35, 25, 11, 44, 57, 70, 0)
s = 20: (0, 47, 26, 19, 64, 23, 28, 12, 55, 85, 43, 0)
s = 21: (0, 62, 32, 14, 56, 29, 36, 7, 41, 48, 30, 0)
s = 22: (0, 69, 41, 14, 51, 22, 39, 11, 74, 38, 34, 0)
s = 23: (0, 59, 28, 17, 41, 27, 27, 9, 74, 95, 36, 0)
s = 24: (0, 61, 48, 19, 29, 20, 32, 16, 79, 54, 32, 0)
s = 25: (0, 87, 35, 16, 51, 29, 31, 15, 57, 61, 27, 0)
s = 26: (0, 49, 36, 20, 72, 19, 34, 17, 38, 58, 43, 0)
s = 27: (0, 70, 32, 21, 41, 19, 30, 12, 31, 52, 45, 0)
s = 28: (0, 49, 44, 15, 43, 28, 33, 11, 44, 65, 51, 0)
s = 29: (0, 47, 21, 15, 49, 28, 28, 8, 47, 32, 35, 0)
s = 30: (0, 86, 35, 16, 45, 41, 23, 9, 78, 49, 56, 0)
s = 31: (0, 50, 29, 16, 74, 18, 23, 12, 50, 47, 33, 0)
s = 32: (0, 39, 34, 25, 48, 20, 43, 8, 58, 30, 41, 0)
s = 33: (0, 38, 41, 17, 64, 37, 35, 9, 40, 84, 65, 0)
s = 34: (0, 53, 30, 18, 64, 47, 20, 11, 32, 77, 44, 0)
s = 35: (0, 48, 50, 15, 52, 21, 30, 14, 41, 73, 44, 0)
s = 36: (0, 75, 34, 13, 82, 24, 27, 11, 46, 60, 30, 0)
s = 37: (0, 41, 45, 13, 63, 60, 21, 11, 57, 30, 56, 0)
s = 38: (0, 62, 44, 22, 32, 26, 22, 8, 76, 60, 79, 0)
s = 39: (0, 80, 45, 19, 46, 32, 32, 12, 44, 78, 47, 0)
s = 40: (0, 32, 55, 27, 35, 31, 43, 10, 35, 28, 34, 0)
s = 41: (0, 53, 25, 18, 68, 23, 42, 9, 62, 43, 35, 0)
s = 42: (0, 49, 36, 19, 38, 29, 35, 13, 82, 66, 68, 0)
s = 43: (0, 80, 33, 13, 48, 31, 41, 11, 79, 55, 62, 0)
s = 44: (0, 62, 23, 17, 28, 26, 37, 8, 93, 84, 33, 0)
s = 45: (0, 45, 42, 13, 54, 44, 17, 9, 39, 49, 34, 0)
s = 46: (0, 76, 36, 13, 50, 26, 29, 11, 62, 68, 41, 0)
s = 47: (0, 73, 40, 13, 76, 34, 31, 12, 83, 40, 54, 0)
s = 48: (0, 30, 42, 16, 45, 24, 35, 10, 44, 43, 45, 0)
s = 49: (0, 44, 33, 19, 42, 40, 54, 14, 85, 50, 34, 0)
s = 50: (0, 40, 38, 11, 36, 29, 36, 7, 41, 35, 61, 0)
s = 51: (0, 31, 55, 15, 46, 41, 42, 12, 69, 45, 39, 0)
s = 52: (0, 31, 54, 11, 66, 42, 23, 10, 35, 89, 27, 0)
s = 53: (0, 98, 28, 22, 29, 17, 19, 16, 65, 75, 35, 0)
s = 54: (0, 77, 45, 11, 58, 26, 29, 8, 44, 42, 39, 0)
s = 55: (0, 36, 36, 24, 37, 25, 20, 10, 40, 51, 69, 0)
s = 56: (0, 61, 26, 12, 44, 42, 21, 13, 30, 50, 48, 0)
s = 57: (0, 79, 55, 12, 57, 45, 20, 11, 67, 46, 38, 0)
s = 58: (0, 87, 41, 16, 77, 39, 32, 13, 36, 57, 49, 0)
s = 59: (0, 51, 38, 16, 31, 34, 37, 7, 58, 47, 33, 0)
s = 60: (0, 37, 50, 17, 63, 27, 20, 11, 61, 60, 38, 0)
s = 61: (0, 60, 42, 9, 59, 33, 25, 10, 67, 32, 43, 0)
s = 62: (0, 32, 40, 20, 53, 30, 42, 14, 50, 76, 40, 0)
s = 63: (0, 42, 29, 14, 54, 34, 23, 14, 63, 62, 39, 0)
s = 64: (0, 53, 34, 23, 44, 31, 19, 12, 56, 73, 36, 0)
s = 65: (0, 69, 32, 16, 31, 21, 32, 16, 37, 73, 59, 0)
s = 66: (0, 43, 39, 19, 66, 39, 28, 12, 47, 66, 43, 0)
s = 67: (0, 55, 36, 29, 52, 32, 34, 16, 70, 64, 68, 0)
s = 68: (0, 80, 31, 18, 68, 34, 26, 11, 48, 54, 37, 0)
s = 69: (0, 35, 34, 13, 91, 31, 45, 13, 82, 60, 46, 0)
s = 70: (0, 42, 33, 12, 60, 34, 22, 11, 79, 69, 41, 0)
s = 71: (0, 82, 31, 16, 34, 34, 28, 8, 45, 43, 51, 0)
s = 72: (0, 33, 30, 16, 58, 31, 48, 14, 43, 58, 40, 0)
s = 73: (0, 50, 34, 19, 62, 25, 31, 13, 50, 37, 83, 0)
s = 74: (0, 78, 28, 12, 48, 45, 27, 12, 33, 34, 43, 0)
s = 75: (0, 67, 33, 10, 58, 34, 29, 8, 46, 44, 51, 0)
s = 76: (0, 33, 22, 10, 54, 27, 29, 8, 51, 51, 43, 0)
s = 77: (0, 39, 26, 13, 30, 29, 50, 14, 89, 41, 47, 0)
s = 78: (0, 60, 48, 24, 83, 32, 28, 8, 36, 44, 45, 0)
s = 79: (0, 46, 41, 24, 77, 31, 26, 10, 66, 51, 54, 0)
s = 80: (0, 81, 41, 11, 52, 58, 20, 15, 38, 52, 34, 0)
s = 81: (0, 54, 56, 14, 64, 25, 35, 13, 66, 101, 72, 0)
s = 82: (0, 55, 34, 20, 59, 30, 42, 8, 68, 30, 53, 0)
s = 83: (0, 63, 45, 21, 46, 30, 29, 13, 48, 72, 71, 0)
s = 84: (0, 38, 53, 11, 53, 43, 38, 13, 67, 48, 82, 0)
s = 85: (0, 90, 57, 17, 73, 24, 42, 10, 75, 44, 50, 0)
s = 86: (0, 43, 49, 20, 84, 31, 18, 9, 65, 43, 55, 0)
s = 87: (0, 56, 65, 17, 29, 37, 35, 10, 86, 40, 50, 0)
s = 88: (0, 46, 40, 17, 76, 30, 46, 9, 74, 51, 46, 0)
s = 89: (0, 50, 24, 17, 61, 35, 19, 11, 41, 73, 49, 0)
s = 90: (0, 46, 39, 18, 52, 25, 43, 11, 92, 38, 41, 0)
s = 91: (0, 81, 35, 11, 42, 22, 27, 11, 38, 49, 50, 0)
s = 92: (0, 43, 44, 14, 70, 42, 17, 8, 87, 39, 53, 0)
s = 93: (0, 38, 34, 13, 28, 28, 37, 12, 47, 88, 56, 0)
s = 94: (0, 58, 43, 10, 83, 28, 32, 17, 62, 56, 60, 0)
s = 95: (0, 35, 34, 11, 43, 33, 21, 11, 52, 59, 34, 0)
s = 96: (0, 45, 35, 10, 51, 32, 31, 13, 50, 51, 58, 0)
s = 97: (0, 56, 26, 16, 60, 36, 43, 8, 44, 71, 43, 0)
s = 98: (0, 70, 23, 16, 51, 30, 32, 6, 76, 34, 37, 0)
s = 99: (0, 36, 34, 10, 54, 19, 21, 11, 65, 42, 35, 0)
s = 100: (0, 42, 47, 16, 73, 29, 20, 18, 57, 35, 41, 0)
s = 101: (0, 82, 42, 12, 40, 37, 41, 20, 68, 56, 46, 0)
s = 102: (0, 51, 22, 19, 49, 51, 27, 12, 43, 59, 30, 0)
s = 103: (0, 41, 43, 22, 36, 25, 28, 16, 82, 51, 37, 0)
s = 104: (0, 58, 32, 18, 34, 49, 29, 14, 70, 92, 49, 0)
s = 105: (0, 37, 32, 13, 36, 21, 42, 18, 59, 34, 60, 0)
s = 106: (0, 49, 40, 12, 52, 24, 31, 11, 38, 55, 50, 0)
s = 107: (0, 72, 20, 23, 45, 23, 31, 14, 60, 35, 69, 0)
s = 108: (0, 43, 32, 20, 48, 29, 33, 8, 54, 47, 51, 0)
s = 109: (0, 32, 29, 15, 45, 31, 26, 11, 45, 114, 58, 0)
s = 110: (0, 40, 35, 17, 56, 25, 17, 8, 39, 80, 41, 0)
s = 111: (0, 58, 42, 10, 59, 25, 19, 9, 78, 53, 35, 0)
s = 112: (0, 61, 45, 10, 33, 31, 30, 14, 45, 72, 29, 0)
s = 113: (0, 48, 50, 10, 48, 25, 20, 13, 57, 36, 46, 0)
s = 114: (0, 47, 41, 13, 57, 26, 20, 8, 43, 64, 49, 0)
s = 115: (0, 66, 38, 16, 66, 27, 26, 16, 35, 47, 57, 0)
s = 116: (0, 42, 22, 9, 80, 33, 47, 11, 94, 39, 60, 0)
s = 117: (0, 37, 24, 19, 63, 36, 37, 9, 68, 87, 39, 0)
s = 118: (0, 76, 27, 11, 41, 37, 29, 13, 54, 78, 40, 0)
s = 119: (0, 54, 37, 25, 84, 42, 30, 12, 79, 101, 39, 0)
s = 120: (0, 30, 36, 14, 53, 35, 39, 19, 63, 33, 36, 0)
s = 121: (0, 42, 22, 13, 53, 42, 20, 6, 67, 65, 29, 0)
s = 122: (0, 58, 23, 11, 50, 46, 38, 10, 55, 74, 38, 0)
s = 123: (0, 86, 40, 12, 43, 33, 20, 9, 42, 75, 30, 0)
s = 124: (0, 57, 24, 10, 62, 19, 22, 9, 74, 53, 44, 0)
s = 125: (0, 47, 31, 21, 43, 23, 32, 10, 70, 55, 52, 0)
s = 126: (0, 90, 54, 18, 71, 39, 17, 13, 35, 38, 40, 0)
s = 127: (0, 41, 23, 19, 43, 35, 27, 11, 42, 64, 38, 0)
s = 128: (0, 65, 35, 27, 75, 42, 52, 10, 38, 44, 37, 0)
s = 129: (0, 75, 38, 15, 45, 43, 44, 11, 72, 36, 53, 0)
s = 130: (0, 60, 31, 23, 64, 32, 30, 8, 50, 56, 43, 0)
s = 131: (0, 49, 41, 14, 64, 23, 33, 13, 67, 31, 45, 0)
s = 132: (0, 83, 19, 13, 30, 25, 37, 8, 43, 71, 39, 0)
s = 133: (0, 31, 44, 13, 39, 29, 30, 11, 57, 85, 45, 0)
s = 134: (0, 39, 39, 12, 54, 17, 38, 9, 52, 72, 48, 0)
s = 135: (0, 38, 28, 16, 41, 29, 24, 11, 87, 49, 33, 0)
s = 136: (0, 53, 29, 14, 45, 21, 24, 12, 35, 60, 68, 0)
s = 137: (0, 49, 19, 13, 47, 24, 36, 13, 54, 83, 30, 0)
s = 138: (0, 48, 38, 15, 27, 20, 23, 9, 61, 49, 40, 0)
s = 139: (0, 53, 23, 25, 59, 31, 26, 17, 34, 36, 43, 0)
s = 140: (0, 69, 24, 15, 73, 54, 28, 12, 58, 67, 52, 0)
s = 141: (0, 64, 36, 9, 57, 26, 33, 14, 64, 60, 45, 0)
s = 142: (0, 41, 39, 14, 105, 34, 36, 17, 50, 47, 30, 0)
s = 143: (0, 64, 27, 15, 36, 17, 24, 13, 64, 56, 42, 0)
s = 144: (0, 66, 28, 17, 33, 24, 36, 8, 83, 87, 41, 0)
s = 145: (0, 47, 44, 19, 39, 31, 33, 9, 51, 39, 36, 0)
s = 146: (0, 42, 48, 27, 52, 32, 47, 15, 50, 38, 70, 0)
s = 147: (0, 33, 40, 12, 66, 19, 27, 7, 56, 37, 68, 0)
s = 148: (0, 38, 33, 11, 70, 21, 26, 13, 50, 34, 28, 0)
s = 149: (0, 82, 31, 15, 43, 29, 38, 13, 43, 59, 54, 0)
s = 150: (0, 41, 36, 13, 48, 29, 30, 9, 37, 87, 32, 0)
s = 151: (0, 42, 48, 13, 42, 34, 35, 9, 52, 45, 58, 0)
s = 152: (0, 90, 36, 19, 70, 50, 31, 10, 60, 58, 78, 0)
s = 153: (0, 76, 53, 10, 39, 46, 21, 16, 61, 61, 50, 0)
s = 154: (0, 54, 24, 12, 68, 43, 21, 9, 36, 57, 45, 0)
s = 155: (0, 69, 29, 16, 60, 43, 49, 8, 56, 34, 43, 0)
s = 156: (0, 51, 21, 17, 30, 38, 29, 10, 31, 37, 49, 0)
s = 157: (0, 64, 32, 18, 37, 35, 23, 9, 37, 69, 52, 0)
s = 158: (0, 40, 35, 15, 34, 55, 16, 11, 42, 53, 55, 0)
s = 159: (0, 34, 26, 18, 45, 28, 25, 11, 67, 75, 48, 0)
s = 160: (0, 48, 35, 16, 76, 28, 38, 13, 43, 45, 35, 0)
s = 161: (0, 67, 47, 21, 70, 40, 18, 16, 62, 87, 31, 0)
s = 162: (0, 53, 62, 13, 45, 34, 26, 15, 43, 36, 57, 0)
s = 163: (0, 55, 47, 17, 79, 34, 20, 21, 74, 60, 39, 0)
s = 164: (0, 53, 43, 9, 79, 26, 19, 14, 85, 56, 63, 0)
s = 165: (0, 68, 66, 15, 52, 27, 22, 17, 47, 37, 40, 0)
s = 166: (0, 34, 34, 16, 53, 36, 46, 11, 57, 68, 32, 0)
s = 167: (0, 41, 42, 14, 47, 27, 29, 9, 49, 34, 48, 0)
s = 168: (0, 49, 32, 25, 79, 24, 18, 13, 62, 28, 44, 0)
s = 169: (0, 53, 30, 15, 40, 29, 23, 8, 57, 73, 53, 0)
s = 170: (0, 100, 46, 14, 33, 24, 33, 11, 81, 86, 41, 0)
s = 171: (0, 65, 20, 11, 30, 39, 30, 10, 45, 70, 61, 0)
s = 172: (0, 71, 25, 17, 37, 32, 29, 14, 64, 38, 41, 0)
s = 173: (0, 55, 36, 14, 42, 23, 25, 11, 58, 44, 74, 0)
s = 174: (0, 41, 25, 14, 58, 32, 37, 16, 44, 47, 28, 0)
s = 175: (0, 66, 22, 16, 41, 21, 42, 7, 63, 78, 43, 0)
s = 176: (0, 41, 31, 18, 29, 33, 25, 11, 40, 34, 46, 0)
s = 177: (0, 41, 32, 15, 62, 33, 21, 17, 79, 53, 75, 0)
s = 178: (0, 45, 28, 10, 66, 31, 42, 11, 63, 66, 63, 0)
s = 179: (0, 78, 36, 21, 64, 22, 25, 10, 33, 51, 64, 0)
s = 180: (0, 66, 39, 13, 42, 36, 39, 9, 45, 52, 42, 0)
s = 181: (0, 40, 41, 15, 63, 25, 20, 7, 33, 47, 59, 0)
s = 182: (0, 43, 50, 12, 52, 31, 16, 7, 61, 74, 32, 0)
s = 183: (0, 46, 51, 10, 53, 29, 29, 14, 41, 63, 49, 0)
s = 184: (0, 52, 20, 15, 61, 36, 20, 7, 63, 44, 74, 0)
s = 185: (0, 47, 48, 18, 37, 36, 37, 7, 57, 45, 45, 0)
s = 186: (0, 37, 34, 16, 51, 37, 28, 11, 71, 46, 57, 0)
s = 187: (0, 29, 51, 19, 56, 39, 28, 14, 80, 52, 48, 0)
s = 188: (0, 45, 34, 17, 45, 35, 24, 8, 70, 37, 56, 0)
s = 189: (0, 39, 31, 14, 41, 31, 26, 8, 95, 46, 55, 0)
s = 190: (0, 77, 51, 14, 52, 23, 46, 11, 34, 60, 26, 0)
s = 191: (0, 53, 33, 16, 35, 43, 22, 17, 75, 70, 65, 0)
s = 192: (0, 42, 24, 14, 61, 54, 39, 10, 44, 74, 37, 0)
s = 193: (0, 52, 41, 17, 45, 26, 26, 10, 35, 31, 64, 0)
s = 194: (0, 69, 47, 15, 42, 30, 46, 8, 33, 51, 67, 0)
s = 195: (0, 66, 30, 11, 55, 27, 24, 9, 48, 67, 35, 0)
s = 196: (0, 29, 29, 15, 56, 29, 26, 13, 93, 39, 59, 0)
s = 197: (0, 81, 41, 22, 40, 43, 38, 14, 69, 50, 59, 0)
s = 198: (0, 51, 57, 12, 36, 19, 32, 10, 38, 65, 35, 0)
s = 199: (0, 55, 30, 10, 47, 33, 35, 8, 59, 49, 47, 0)
s = 200: (0, 40, 28, 13, 70, 32, 21, 16, 35, 42, 37, 0)
------------------------------------------------------------------------
RESOURCE k = 2
s = 1: (0, 37, 22, 7, 9, 18, 9, 8, 21, 28, 14, 0)
s = 2: (0, 44, 22, 11, 15, 13, 8, 5, 28, 14, 31, 0)
s = 3: (0, 53, 24, 5, 23, 15, 8, 6, 12, 22, 22, 0)
s = 4: (0, 49, 35, 7, 17, 12, 7, 10, 20, 26, 21, 0)
s = 5: (0, 24, 28, 8, 19, 11, 10, 6, 15, 24, 25, 0)
s = 6: (0, 42, 39, 7, 17, 10, 14, 6, 23, 19, 12, 0)
s = 7: (0, 72, 34, 8, 15, 12, 7, 10, 23, 31, 25, 0)
s = 8: (0, 48, 36, 5, 21, 12, 8, 10, 19, 30, 30, 0)
s = 9: (0, 42, 20, 6, 18, 17, 7, 6, 30, 18, 23, 0)
s = 10: (0, 55, 34, 6, 16, 15, 7, 7, 25, 16, 21, 0)
s = 11: (0, 35, 39, 8, 17, 14, 15, 15, 24, 41, 23, 0)
s = 12: (0, 44, 39, 8, 13, 12, 9, 9, 22, 22, 14, 0)
s = 13: (0, 36, 32, 9, 14, 8, 17, 9, 19, 22, 33, 0)
s = 14: (0, 74, 27, 7, 17, 11, 12, 14, 21, 24, 12, 0)
s = 15: (0, 54, 34, 11, 15, 12, 11, 11, 24, 21, 21, 0)
s = 16: (0, 43, 32, 12, 16, 21, 8, 8, 18, 17, 41, 0)
s = 17: (0, 37, 25, 7, 18, 17, 7, 8, 19, 20, 35, 0)
s = 18: (0, 33, 25, 7, 14, 10, 12, 12, 28, 22, 19, 0)
s = 19: (0, 35, 29, 8, 23, 16, 9, 8, 16, 26, 31, 0)
s = 20: (0, 37, 20, 10, 20, 10, 10, 9, 20, 38, 19, 0)
s = 21: (0, 49, 25, 7, 17, 13, 12, 5, 15, 22, 13, 0)
s = 22: (0, 54, 32, 7, 16, 10, 13, 8, 27, 17, 15, 0)
s = 23: (0, 46, 22, 9, 13, 12, 9, 7, 27, 42, 16, 0)
s = 24: (0, 47, 37, 10, 9, 9, 11, 12, 28, 24, 14, 0)
s = 25: (0, 68, 27, 8, 16, 13, 11, 11, 21, 27, 12, 0)
s = 26: (0, 38, 28, 10, 22, 9, 12, 13, 14, 26, 19, 0)
s = 27: (0, 54, 25, 11, 13, 9, 10, 9, 11, 23, 20, 0)
s = 28: (0, 38, 34, 8, 14, 12, 11, 8, 16, 29, 23, 0)
s = 29: (0, 37, 17, 8, 15, 13, 10, 6, 17, 15, 16, 0)
s = 30: (0, 67, 27, 8, 14, 18, 8, 6, 28, 22, 25, 0)
s = 31: (0, 39, 22, 8, 23, 8, 8, 9, 18, 21, 15, 0)
s = 32: (0, 30, 26, 13, 15, 9, 15, 6, 21, 14, 18, 0)
s = 33: (0, 30, 32, 9, 20, 16, 12, 7, 15, 37, 29, 0)
s = 34: (0, 41, 23, 9, 20, 21, 7, 8, 12, 35, 20, 0)
s = 35: (0, 38, 39, 8, 16, 9, 10, 10, 15, 33, 20, 0)
s = 36: (0, 59, 26, 7, 26, 11, 9, 8, 17, 27, 13, 0)
s = 37: (0, 32, 35, 7, 20, 26, 7, 8, 21, 14, 25, 0)
s = 38: (0, 48, 34, 11, 10, 12, 8, 6, 28, 27, 35, 0)
s = 39: (0, 62, 35, 10, 15, 14, 11, 9, 16, 35, 21, 0)
s = 40: (0, 25, 43, 14, 11, 14, 15, 7, 13, 13, 15, 0)
s = 41: (0, 42, 19, 9, 21, 10, 14, 7, 22, 20, 16, 0)
s = 42: (0, 38, 28, 10, 12, 13, 12, 10, 29, 30, 30, 0)
s = 43: (0, 62, 26, 7, 15, 14, 14, 8, 29, 25, 27, 0)
s = 44: (0, 48, 18, 9, 9, 12, 13, 6, 34, 38, 15, 0)
s = 45: (0, 35, 33, 7, 17, 19, 6, 7, 14, 22, 15, 0)
s = 46: (0, 60, 28, 7, 16, 12, 10, 8, 23, 30, 18, 0)
s = 47: (0, 57, 31, 7, 24, 15, 11, 9, 30, 18, 24, 0)
s = 48: (0, 24, 33, 8, 14, 11, 12, 8, 16, 19, 20, 0)
s = 49: (0, 34, 26, 10, 13, 18, 18, 10, 31, 23, 15, 0)
s = 50: (0, 31, 30, 6, 12, 13, 12, 5, 15, 16, 27, 0)
s = 51: (0, 25, 43, 8, 15, 18, 14, 9, 25, 20, 17, 0)
s = 52: (0, 24, 42, 6, 21, 19, 8, 7, 13, 40, 12, 0)
s = 53: (0, 76, 22, 11, 9, 8, 7, 11, 24, 34, 15, 0)
s = 54: (0, 60, 35, 6, 18, 12, 10, 6, 16, 19, 17, 0)
s = 55: (0, 28, 28, 12, 12, 11, 7, 7, 14, 23, 31, 0)
s = 56: (0, 47, 21, 6, 14, 19, 7, 10, 11, 22, 21, 0)
s = 57: (0, 62, 43, 6, 18, 20, 7, 8, 24, 21, 17, 0)
s = 58: (0, 68, 32, 8, 24, 17, 11, 9, 13, 26, 22, 0)
s = 59: (0, 40, 29, 8, 10, 15, 13, 5, 21, 21, 15, 0)
s = 60: (0, 29, 39, 9, 20, 12, 7, 8, 22, 27, 17, 0)
s = 61: (0, 47, 33, 5, 19, 15, 9, 7, 24, 15, 19, 0)
s = 62: (0, 25, 32, 10, 17, 13, 14, 10, 18, 34, 18, 0)
s = 63: (0, 33, 23, 7, 17, 15, 8, 11, 23, 28, 17, 0)
s = 64: (0, 42, 26, 12, 14, 14, 7, 9, 20, 33, 16, 0)
s = 65: (0, 54, 25, 8, 10, 10, 11, 12, 14, 33, 26, 0)
s = 66: (0, 34, 30, 10, 21, 17, 10, 9, 17, 30, 19, 0)
s = 67: (0, 43, 28, 15, 16, 14, 12, 12, 25, 29, 30, 0)
s = 68: (0, 63, 25, 9, 21, 15, 9, 8, 17, 24, 16, 0)
s = 69: (0, 28, 27, 7, 28, 14, 15, 9, 30, 27, 21, 0)
s = 70: (0, 33, 26, 6, 19, 15, 8, 8, 29, 31, 18, 0)
s = 71: (0, 64, 25, 8, 11, 15, 10, 6, 16, 19, 23, 0)
s = 72: (0, 26, 23, 8, 18, 14, 16, 11, 16, 26, 18, 0)
s = 73: (0, 39, 27, 10, 20, 11, 11, 10, 18, 17, 37, 0)
s = 74: (0, 61, 22, 6, 15, 20, 9, 9, 12, 16, 19, 0)
s = 75: (0, 52, 26, 5, 18, 15, 10, 6, 17, 20, 23, 0)
s = 76: (0, 26, 17, 5, 17, 12, 10, 6, 18, 23, 19, 0)
s = 77: (0, 30, 20, 7, 10, 13, 17, 10, 32, 18, 21, 0)
s = 78: (0, 47, 37, 12, 26, 14, 10, 6, 13, 20, 20, 0)
s = 79: (0, 36, 32, 12, 24, 14, 9, 7, 24, 23, 24, 0)
s = 80: (0, 63, 32, 6, 16, 26, 7, 11, 14, 23, 15, 0)
s = 81: (0, 42, 44, 7, 20, 11, 12, 9, 24, 45, 32, 0)
s = 82: (0, 43, 26, 10, 18, 13, 14, 6, 25, 14, 23, 0)
s = 83: (0, 49, 35, 11, 15, 13, 10, 10, 18, 32, 31, 0)
s = 84: (0, 30, 41, 6, 17, 19, 13, 9, 24, 22, 36, 0)
s = 85: (0, 70, 45, 9, 23, 11, 14, 8, 27, 20, 22, 0)
s = 86: (0, 34, 38, 10, 26, 14, 6, 7, 24, 20, 24, 0)
s = 87: (0, 43, 50, 9, 9, 16, 12, 7, 31, 18, 22, 0)
s = 88: (0, 36, 31, 9, 24, 14, 16, 7, 27, 23, 20, 0)
s = 89: (0, 39, 19, 9, 19, 16, 7, 8, 15, 33, 22, 0)
s = 90: (0, 36, 31, 9, 16, 11, 15, 8, 33, 17, 18, 0)
s = 91: (0, 63, 28, 6, 13, 10, 9, 8, 14, 22, 22, 0)
s = 92: (0, 33, 34, 7, 22, 19, 6, 6, 32, 18, 23, 0)
s = 93: (0, 30, 27, 7, 9, 12, 13, 9, 17, 39, 25, 0)
s = 94: (0, 45, 33, 5, 26, 12, 11, 12, 22, 25, 26, 0)
s = 95: (0, 27, 26, 6, 14, 15, 7, 8, 19, 27, 15, 0)
s = 96: (0, 35, 27, 5, 16, 14, 11, 10, 18, 23, 25, 0)
s = 97: (0, 44, 20, 8, 19, 16, 15, 6, 16, 32, 19, 0)
s = 98: (0, 55, 18, 8, 16, 13, 11, 5, 28, 16, 16, 0)
s = 99: (0, 28, 26, 5, 17, 9, 7, 8, 24, 19, 16, 0)
s = 100: (0, 33, 37, 8, 23, 13, 7, 14, 21, 16, 18, 0)
s = 101: (0, 64, 32, 6, 13, 17, 14, 14, 25, 25, 20, 0)
s = 102: (0, 39, 18, 10, 15, 22, 9, 9, 16, 26, 13, 0)
s = 103: (0, 32, 33, 11, 11, 11, 10, 12, 30, 23, 16, 0)
s = 104: (0, 45, 25, 9, 11, 22, 10, 10, 25, 41, 22, 0)
s = 105: (0, 29, 25, 7, 11, 10, 14, 13, 21, 15, 26, 0)
s = 106: (0, 38, 31, 6, 16, 11, 11, 8, 14, 25, 22, 0)
s = 107: (0, 56, 16, 12, 14, 10, 11, 10, 22, 16, 30, 0)
s = 108: (0, 33, 25, 10, 15, 13, 11, 6, 20, 21, 22, 0)
s = 109: (0, 25, 22, 8, 14, 14, 9, 8, 16, 51, 26, 0)
s = 110: (0, 31, 27, 9, 18, 11, 6, 6, 14, 36, 18, 0)
s = 111: (0, 45, 33, 5, 19, 11, 7, 6, 28, 24, 16, 0)
s = 112: (0, 47, 35, 5, 11, 14, 10, 10, 16, 32, 13, 0)
s = 113: (0, 38, 39, 5, 15, 11, 7, 10, 21, 16, 21, 0)
s = 114: (0, 36, 32, 7, 18, 12, 7, 6, 16, 29, 22, 0)
s = 115: (0, 52, 30, 8, 21, 12, 9, 12, 13, 21, 25, 0)
s = 116: (0, 33, 17, 5, 25, 15, 16, 8, 34, 17, 26, 0)
s = 117: (0, 29, 19, 10, 20, 16, 13, 6, 25, 39, 17, 0)
s = 118: (0, 59, 21, 6, 13, 16, 10, 10, 20, 35, 18, 0)
s = 119: (0, 42, 29, 13, 26, 19, 10, 9, 29, 45, 17, 0)
s = 120: (0, 24, 28, 7, 17, 16, 13, 14, 23, 15, 16, 0)
s = 121: (0, 33, 17, 7, 17, 19, 7, 5, 24, 29, 13, 0)
s = 122: (0, 46, 18, 6, 16, 20, 13, 7, 20, 33, 17, 0)
s = 123: (0, 67, 32, 6, 14, 15, 7, 6, 15, 34, 13, 0)
s = 124: (0, 45, 19, 5, 20, 9, 8, 6, 27, 24, 20, 0)
s = 125: (0, 37, 24, 11, 13, 10, 11, 7, 25, 25, 23, 0)
s = 126: (0, 70, 42, 9, 22, 17, 6, 10, 13, 17, 18, 0)
s = 127: (0, 32, 18, 10, 14, 16, 9, 8, 15, 29, 17, 0)
s = 128: (0, 50, 28, 14, 23, 19, 18, 7, 14, 20, 16, 0)
s = 129: (0, 59, 30, 8, 14, 19, 15, 8, 26, 16, 23, 0)
s = 130: (0, 47, 24, 12, 20, 14, 10, 6, 18, 25, 19, 0)
s = 131: (0, 38, 32, 7, 20, 10, 11, 9, 24, 14, 20, 0)
s = 132: (0, 64, 15, 7, 10, 11, 13, 6, 16, 32, 17, 0)
s = 133: (0, 24, 34, 7, 12, 13, 10, 8, 21, 38, 20, 0)
s = 134: (0, 30, 30, 6, 17, 8, 13, 7, 19, 32, 21, 0)
s = 135: (0, 29, 22, 8, 13, 13, 8, 8, 31, 22, 15, 0)
s = 136: (0, 41, 23, 7, 14, 10, 8, 9, 13, 27, 30, 0)
s = 137: (0, 38, 15, 7, 15, 11, 12, 9, 20, 37, 13, 0)
s = 138: (0, 38, 30, 8, 9, 9, 8, 6, 22, 22, 18, 0)
s = 139: (0, 42, 18, 13, 19, 14, 9, 13, 12, 16, 19, 0)
s = 140: (0, 54, 19, 8, 23, 24, 10, 9, 21, 30, 23, 0)
s = 141: (0, 50, 28, 5, 18, 12, 11, 10, 23, 27, 20, 0)
s = 142: (0, 32, 30, 7, 33, 15, 12, 12, 18, 21, 13, 0)
s = 143: (0, 50, 21, 8, 11, 8, 8, 9, 23, 25, 19, 0)
s = 144: (0, 52, 22, 9, 11, 11, 12, 6, 30, 39, 18, 0)
s = 145: (0, 36, 34, 10, 12, 14, 11, 6, 18, 18, 16, 0)
s = 146: (0, 33, 37, 14, 16, 14, 16, 11, 18, 17, 31, 0)
s = 147: (0, 26, 31, 6, 21, 8, 9, 6, 20, 17, 30, 0)
s = 148: (0, 29, 26, 6, 22, 10, 9, 9, 18, 16, 12, 0)
s = 149: (0, 64, 24, 8, 14, 13, 13, 10, 16, 27, 24, 0)
s = 150: (0, 32, 28, 7, 15, 13, 10, 7, 14, 39, 14, 0)
s = 151: (0, 33, 38, 7, 13, 15, 12, 7, 19, 20, 26, 0)
s = 152: (0, 70, 28, 10, 22, 22, 11, 7, 22, 26, 34, 0)
s = 153: (0, 59, 41, 5, 12, 20, 7, 12, 22, 27, 22, 0)
s = 154: (0, 42, 19, 6, 21, 19, 7, 6, 13, 26, 20, 0)
s = 155: (0, 54, 22, 8, 19, 19, 17, 6, 20, 15, 19, 0)
s = 156: (0, 40, 17, 9, 10, 17, 10, 7, 11, 17, 22, 0)
s = 157: (0, 50, 25, 9, 12, 16, 8, 6, 14, 31, 23, 0)
s = 158: (0, 31, 28, 8, 11, 24, 6, 8, 15, 24, 24, 0)
s = 159: (0, 26, 20, 9, 14, 12, 9, 8, 24, 34, 21, 0)
s = 160: (0, 38, 27, 8, 24, 13, 13, 10, 16, 20, 15, 0)
s = 161: (0, 53, 37, 11, 22, 18, 6, 12, 22, 39, 14, 0)
s = 162: (0, 42, 49, 7, 14, 15, 9, 11, 16, 16, 25, 0)
s = 163: (0, 43, 36, 9, 25, 15, 7, 16, 27, 27, 17, 0)
s = 164: (0, 42, 33, 5, 25, 12, 7, 11, 31, 25, 28, 0)
s = 165: (0, 53, 51, 8, 16, 12, 8, 12, 17, 17, 18, 0)
s = 166: (0, 27, 27, 8, 17, 16, 16, 8, 21, 31, 14, 0)
s = 167: (0, 32, 33, 7, 15, 12, 10, 7, 18, 15, 21, 0)
s = 168: (0, 38, 25, 13, 25, 11, 6, 10, 22, 13, 19, 0)
s = 169: (0, 41, 23, 8, 13, 13, 8, 6, 21, 33, 23, 0)
s = 170: (0, 78, 36, 7, 11, 11, 11, 8, 29, 39, 18, 0)
s = 171: (0, 50, 16, 6, 10, 17, 10, 8, 16, 32, 27, 0)
s = 172: (0, 56, 20, 9, 12, 14, 10, 10, 23, 17, 18, 0)
s = 173: (0, 43, 28, 7, 13, 10, 9, 8, 21, 20, 32, 0)
s = 174: (0, 32, 20, 7, 18, 14, 13, 12, 16, 21, 13, 0)
s = 175: (0, 51, 17, 8, 13, 9, 14, 5, 23, 35, 19, 0)
s = 176: (0, 32, 24, 9, 9, 15, 9, 8, 15, 15, 20, 0)
s = 177: (0, 32, 25, 8, 20, 15, 7, 12, 28, 24, 33, 0)
s = 178: (0, 35, 22, 5, 21, 14, 14, 8, 23, 29, 28, 0)
s = 179: (0, 61, 28, 11, 20, 10, 9, 7, 12, 23, 28, 0)
s = 180: (0, 52, 30, 7, 13, 16, 13, 7, 16, 23, 19, 0)
s = 181: (0, 32, 32, 8, 20, 11, 7, 5, 12, 21, 26, 0)
s = 182: (0, 34, 39, 6, 16, 14, 6, 5, 22, 33, 14, 0)
s = 183: (0, 36, 40, 5, 17, 13, 10, 10, 15, 28, 22, 0)
s = 184: (0, 41, 16, 8, 19, 16, 7, 6, 23, 20, 33, 0)
s = 185: (0, 36, 37, 9, 12, 16, 13, 6, 21, 20, 20, 0)
s = 186: (0, 29, 26, 8, 16, 17, 10, 8, 26, 21, 25, 0)
s = 187: (0, 23, 40, 10, 18, 18, 10, 10, 29, 23, 21, 0)
s = 188: (0, 35, 27, 9, 14, 16, 8, 6, 25, 17, 25, 0)
s = 189: (0, 30, 24, 7, 13, 14, 9, 6, 34, 21, 25, 0)
s = 190: (0, 60, 40, 7, 16, 10, 16, 8, 12, 27, 12, 0)
s = 191: (0, 42, 26, 8, 11, 19, 8, 12, 27, 31, 29, 0)
s = 192: (0, 33, 19, 7, 19, 24, 13, 8, 16, 33, 16, 0)
s = 193: (0, 40, 32, 9, 14, 11, 9, 8, 13, 14, 28, 0)
s = 194: (0, 54, 37, 8, 13, 13, 16, 6, 12, 23, 30, 0)
s = 195: (0, 51, 24, 6, 17, 12, 8, 7, 18, 30, 16, 0)
s = 196: (0, 23, 22, 8, 18, 13, 9, 10, 34, 18, 26, 0)
s = 197: (0, 63, 32, 11, 13, 19, 13, 10, 25, 23, 26, 0)
s = 198: (0, 40, 44, 6, 11, 8, 11, 7, 14, 29, 16, 0)
s = 199: (0, 43, 24, 5, 15, 15, 12, 6, 21, 22, 21, 0)
s = 200: (0, 31, 22, 7, 22, 14, 7, 12, 13, 19, 16, 0)
------------------------------------------------------------------------
RESOURCE k = 3
s = 1: (0, 31, 10, 6, 15, 8, 4, 8, 25, 18, 8, 0)
s = 2: (0, 38, 10, 10, 25, 6, 4, 5, 34, 9, 18, 0)
s = 3: (0, 45, 10, 5, 39, 7, 4, 6, 14, 14, 13, 0)
s = 4: (0, 42, 15, 6, 29, 5, 3, 10, 24, 16, 12, 0)
s = 5: (0, 21, 12, 7, 32, 5, 4, 6, 18, 15, 14, 0)
s = 6: (0, 36, 17, 6, 30, 5, 6, 6, 27, 12, 7, 0)
s = 7: (0, 61, 15, 7, 25, 6, 3, 10, 27, 20, 15, 0)
s = 8: (0, 41, 16, 5, 36, 5, 3, 10, 22, 19, 18, 0)
s = 9: (0, 36, 9, 5, 31, 8, 3, 6, 36, 11, 13, 0)
s = 10: (0, 47, 15, 5, 27, 7, 3, 7, 30, 10, 12, 0)
s = 11: (0, 30, 17, 7, 30, 6, 6, 15, 29, 26, 13, 0)
s = 12: (0, 38, 17, 7, 23, 5, 4, 9, 26, 14, 8, 0)
s = 13: (0, 31, 14, 8, 24, 4, 7, 9, 23, 14, 19, 0)
s = 14: (0, 63, 12, 6, 29, 5, 5, 14, 25, 15, 7, 0)
s = 15: (0, 46, 15, 10, 26, 6, 5, 11, 28, 13, 12, 0)
s = 16: (0, 37, 14, 11, 27, 9, 3, 8, 22, 11, 24, 0)
s = 17: (0, 32, 11, 6, 32, 8, 3, 8, 22, 13, 20, 0)
s = 18: (0, 29, 11, 6, 24, 5, 5, 12, 33, 14, 11, 0)
s = 19: (0, 30, 13, 7, 40, 7, 4, 8, 19, 16, 18, 0)
s = 20: (0, 31, 9, 9, 35, 5, 4, 9, 24, 24, 11, 0)
s = 21: (0, 42, 11, 6, 30, 6, 5, 5, 18, 14, 8, 0)
s = 22: (0, 46, 14, 7, 28, 5, 6, 8, 32, 11, 9, 0)
s = 23: (0, 39, 10, 8, 22, 5, 4, 7, 32, 27, 9, 0)
s = 24: (0, 41, 16, 8, 16, 4, 5, 12, 34, 15, 8, 0)
s = 25: (0, 58, 12, 7, 28, 6, 5, 11, 25, 17, 7, 0)
s = 26: (0, 33, 12, 9, 39, 4, 5, 13, 17, 17, 11, 0)
s = 27: (0, 47, 11, 10, 23, 4, 4, 9, 13, 15, 12, 0)
s = 28: (0, 33, 15, 7, 24, 6, 5, 8, 19, 18, 13, 0)
s = 29: (0, 32, 7, 7, 27, 6, 4, 6, 20, 9, 9, 0)
s = 30: (0, 57, 12, 7, 24, 8, 4, 6, 34, 14, 14, 0)
s = 31: (0, 33, 10, 7, 40, 4, 3, 9, 22, 13, 9, 0)
s = 32: (0, 26, 12, 11, 26, 4, 6, 6, 25, 9, 11, 0)
s = 33: (0, 26, 14, 8, 35, 7, 5, 7, 17, 24, 17, 0)
s = 34: (0, 36, 10, 8, 35, 9, 3, 8, 14, 22, 11, 0)
s = 35: (0, 32, 17, 7, 28, 4, 4, 10, 18, 21, 11, 0)
s = 36: (0, 50, 12, 6, 44, 5, 4, 8, 20, 17, 8, 0)
s = 37: (0, 28, 15, 6, 34, 12, 3, 8, 25, 9, 14, 0)
s = 38: (0, 41, 15, 10, 17, 5, 3, 6, 33, 17, 20, 0)
s = 39: (0, 54, 15, 9, 25, 6, 5, 9, 19, 22, 12, 0)
s = 40: (0, 21, 19, 12, 19, 6, 6, 7, 15, 8, 9, 0)
s = 41: (0, 36, 9, 8, 37, 5, 6, 7, 27, 12, 9, 0)
s = 42: (0, 33, 12, 9, 21, 6, 5, 10, 35, 19, 17, 0)
s = 43: (0, 53, 11, 6, 26, 6, 6, 8, 34, 16, 16, 0)
s = 44: (0, 42, 8, 8, 15, 5, 5, 6, 40, 24, 9, 0)
s = 45: (0, 30, 14, 6, 30, 9, 3, 7, 17, 14, 9, 0)
s = 46: (0, 51, 12, 6, 27, 5, 4, 8, 27, 19, 11, 0)
s = 47: (0, 49, 14, 6, 41, 7, 5, 9, 36, 11, 14, 0)
s = 48: (0, 20, 14, 7, 25, 5, 5, 8, 19, 12, 12, 0)
s = 49: (0, 29, 11, 9, 23, 8, 8, 10, 37, 14, 9, 0)
s = 50: (0, 27, 13, 5, 20, 6, 5, 5, 18, 10, 16, 0)
s = 51: (0, 21, 19, 7, 25, 8, 6, 9, 30, 13, 10, 0)
s = 52: (0, 21, 18, 5, 36, 8, 4, 7, 15, 25, 7, 0)
s = 53: (0, 65, 10, 10, 16, 4, 3, 11, 28, 21, 9, 0)
s = 54: (0, 52, 15, 5, 32, 5, 4, 6, 19, 12, 10, 0)
s = 55: (0, 24, 12, 11, 20, 5, 3, 7, 17, 15, 18, 0)
s = 56: (0, 41, 9, 5, 24, 8, 3, 10, 13, 14, 12, 0)
s = 57: (0, 53, 19, 5, 31, 9, 3, 8, 29, 13, 10, 0)
s = 58: (0, 58, 14, 7, 42, 8, 5, 9, 16, 16, 13, 0)
s = 59: (0, 34, 13, 7, 17, 7, 5, 5, 25, 14, 9, 0)
s = 60: (0, 25, 17, 8, 34, 6, 3, 8, 26, 17, 10, 0)
s = 61: (0, 40, 14, 4, 32, 7, 4, 7, 29, 9, 11, 0)
s = 62: (0, 21, 14, 9, 29, 6, 6, 10, 22, 21, 10, 0)
s = 63: (0, 28, 10, 6, 29, 7, 3, 11, 27, 17, 10, 0)
s = 64: (0, 36, 12, 10, 24, 6, 3, 9, 24, 21, 9, 0)
s = 65: (0, 46, 11, 7, 17, 4, 5, 12, 16, 21, 15, 0)
s = 66: (0, 29, 13, 9, 36, 8, 4, 9, 20, 19, 11, 0)
s = 67: (0, 37, 12, 13, 28, 6, 5, 12, 30, 18, 17, 0)
s = 68: (0, 54, 11, 8, 37, 7, 4, 8, 21, 15, 10, 0)
s = 69: (0, 24, 12, 6, 49, 6, 6, 9, 36, 17, 12, 0)
s = 70: (0, 28, 11, 5, 33, 7, 3, 8, 34, 20, 11, 0)
s = 71: (0, 55, 11, 7, 19, 7, 4, 6, 20, 12, 13, 0)
s = 72: (0, 22, 10, 7, 31, 6, 7, 11, 19, 16, 10, 0)
s = 73: (0, 34, 12, 9, 34, 5, 5, 10, 22, 11, 21, 0)
s = 74: (0, 52, 10, 6, 26, 9, 4, 9, 14, 10, 11, 0)
s = 75: (0, 45, 11, 5, 31, 7, 4, 6, 20, 12, 13, 0)
s = 76: (0, 22, 8, 5, 29, 5, 4, 6, 22, 15, 11, 0)
s = 77: (0, 26, 9, 6, 17, 6, 7, 10, 39, 12, 12, 0)
s = 78: (0, 40, 16, 11, 45, 6, 4, 6, 16, 12, 12, 0)
s = 79: (0, 31, 14, 11, 42, 6, 4, 7, 28, 15, 14, 0)
s = 80: (0, 54, 14, 5, 28, 11, 3, 11, 17, 15, 9, 0)
s = 81: (0, 36, 19, 6, 35, 5, 5, 9, 29, 29, 18, 0)
s = 82: (0, 37, 12, 9, 32, 6, 6, 6, 30, 9, 14, 0)
s = 83: (0, 42, 15, 10, 25, 6, 4, 10, 21, 20, 18, 0)
s = 84: (0, 26, 18, 5, 29, 8, 5, 9, 29, 14, 21, 0)
s = 85: (0, 60, 19, 8, 39, 5, 6, 8, 32, 13, 13, 0)
s = 86: (0, 29, 17, 9, 45, 6, 3, 7, 28, 12, 14, 0)
s = 87: (0, 37, 22, 8, 16, 7, 5, 7, 37, 11, 13, 0)
s = 88: (0, 31, 14, 8, 41, 6, 7, 7, 32, 15, 12, 0)
s = 89: (0, 34, 8, 8, 33, 7, 3, 8, 18, 21, 13, 0)
s = 90: (0, 31, 13, 8, 28, 5, 6, 8, 40, 11, 11, 0)
s = 91: (0, 54, 12, 5, 23, 4, 4, 8, 16, 14, 13, 0)
s = 92: (0, 29, 15, 7, 38, 8, 3, 6, 38, 11, 14, 0)
s = 93: (0, 26, 12, 6, 16, 6, 5, 9, 20, 25, 14, 0)
s = 94: (0, 39, 15, 4, 45, 6, 5, 12, 27, 16, 15, 0)
s = 95: (0, 23, 12, 5, 23, 7, 3, 8, 23, 17, 9, 0)
s = 96: (0, 30, 12, 5, 27, 6, 5, 10, 22, 15, 15, 0)
s = 97: (0, 37, 9, 7, 33, 7, 6, 6, 19, 20, 11, 0)
s = 98: (0, 47, 8, 7, 28, 6, 5, 5, 33, 10, 10, 0)
s = 99: (0, 24, 12, 4, 29, 4, 3, 8, 28, 12, 9, 0)
s = 100: (0, 28, 16, 7, 39, 6, 3, 14, 25, 10, 11, 0)
s = 101: (0, 55, 14, 6, 22, 7, 6, 14, 30, 16, 12, 0)
s = 102: (0, 34, 8, 9, 27, 10, 4, 9, 19, 17, 8, 0)
s = 103: (0, 28, 15, 10, 20, 5, 4, 12, 35, 14, 10, 0)
s = 104: (0, 39, 11, 8, 18, 10, 4, 10, 30, 26, 13, 0)
s = 105: (0, 25, 11, 6, 20, 4, 6, 13, 25, 10, 15, 0)
s = 106: (0, 33, 14, 6, 28, 5, 5, 8, 16, 16, 13, 0)
s = 107: (0, 48, 7, 10, 25, 5, 5, 10, 26, 10, 18, 0)
s = 108: (0, 29, 11, 9, 26, 6, 5, 6, 23, 13, 13, 0)
s = 109: (0, 21, 10, 7, 24, 6, 4, 8, 19, 32, 15, 0)
s = 110: (0, 27, 12, 8, 30, 5, 3, 6, 17, 23, 11, 0)
s = 111: (0, 39, 14, 5, 32, 5, 3, 6, 34, 15, 9, 0)
s = 112: (0, 41, 15, 5, 18, 6, 4, 10, 19, 20, 8, 0)
s = 113: (0, 32, 17, 5, 26, 5, 3, 10, 25, 10, 12, 0)
s = 114: (0, 31, 14, 6, 31, 5, 3, 6, 19, 18, 13, 0)
s = 115: (0, 44, 13, 7, 36, 6, 4, 12, 15, 13, 15, 0)
s = 116: (0, 28, 8, 4, 43, 7, 7, 8, 40, 11, 15, 0)
s = 117: (0, 25, 8, 9, 34, 7, 5, 6, 29, 24, 10, 0)
s = 118: (0, 51, 9, 5, 22, 7, 4, 10, 24, 22, 10, 0)
s = 119: (0, 36, 13, 11, 45, 8, 4, 9, 34, 28, 10, 0)
s = 120: (0, 20, 12, 7, 29, 7, 6, 14, 27, 9, 9, 0)
s = 121: (0, 28, 8, 6, 29, 8, 3, 5, 29, 19, 8, 0)
s = 122: (0, 39, 8, 5, 27, 9, 6, 7, 24, 21, 10, 0)
s = 123: (0, 57, 14, 6, 23, 7, 3, 6, 18, 21, 8, 0)
s = 124: (0, 38, 8, 5, 34, 4, 3, 6, 32, 15, 11, 0)
s = 125: (0, 32, 11, 10, 23, 5, 5, 7, 30, 16, 13, 0)
s = 126: (0, 60, 18, 8, 39, 8, 3, 10, 15, 11, 10, 0)
s = 127: (0, 28, 8, 9, 23, 7, 4, 8, 18, 18, 10, 0)
s = 128: (0, 43, 12, 12, 40, 8, 7, 7, 17, 12, 10, 0)
s = 129: (0, 50, 13, 7, 24, 9, 6, 8, 31, 10, 14, 0)
s = 130: (0, 40, 11, 11, 35, 6, 4, 6, 22, 16, 11, 0)
s = 131: (0, 33, 14, 6, 35, 5, 5, 9, 29, 9, 12, 0)
s = 132: (0, 55, 7, 6, 17, 5, 5, 6, 19, 20, 10, 0)
s = 133: (0, 21, 15, 6, 21, 6, 4, 8, 25, 24, 12, 0)
s = 134: (0, 26, 13, 6, 29, 4, 5, 7, 23, 20, 12, 0)
s = 135: (0, 25, 10, 7, 22, 6, 4, 8, 38, 14, 9, 0)
s = 136: (0, 36, 10, 6, 24, 4, 4, 9, 15, 17, 17, 0)
s = 137: (0, 33, 7, 6, 25, 5, 5, 9, 23, 23, 8, 0)
s = 138: (0, 32, 13, 7, 15, 4, 3, 6, 26, 14, 10, 0)
s = 139: (0, 36, 8, 11, 32, 6, 4, 13, 15, 10, 11, 0)
s = 140: (0, 46, 8, 7, 40, 11, 4, 9, 25, 19, 13, 0)
s = 141: (0, 43, 12, 4, 31, 5, 5, 10, 28, 17, 12, 0)
s = 142: (0, 27, 13, 7, 57, 7, 5, 12, 22, 14, 8, 0)
s = 143: (0, 43, 9, 7, 20, 4, 4, 9, 28, 16, 11, 0)
s = 144: (0, 44, 10, 8, 18, 5, 5, 6, 36, 24, 11, 0)
s = 145: (0, 31, 15, 9, 21, 6, 5, 6, 22, 11, 9, 0)
s = 146: (0, 28, 16, 12, 28, 6, 7, 11, 22, 11, 18, 0)
s = 147: (0, 22, 14, 6, 36, 4, 4, 6, 24, 11, 17, 0)
s = 148: (0, 25, 11, 5, 38, 4, 4, 9, 22, 10, 7, 0)
s = 149: (0, 55, 11, 7, 23, 6, 6, 10, 19, 17, 14, 0)
s = 150: (0, 28, 12, 6, 26, 6, 4, 7, 16, 24, 8, 0)
s = 151: (0, 28, 16, 6, 23, 7, 5, 7, 22, 13, 15, 0)
s = 152: (0, 60, 12, 9, 38, 10, 5, 7, 26, 17, 20, 0)
s = 153: (0, 51, 18, 5, 21, 9, 3, 12, 26, 17, 13, 0)
s = 154: (0, 36, 8, 6, 37, 8, 3, 6, 16, 16, 12, 0)
s = 155: (0, 46, 10, 7, 33, 9, 7, 6, 24, 10, 11, 0)
s = 156: (0, 34, 7, 8, 17, 8, 4, 7, 14, 11, 13, 0)
s = 157: (0, 43, 11, 8, 20, 7, 3, 6, 16, 20, 13, 0)
s = 158: (0, 27, 12, 7, 18, 11, 3, 8, 18, 15, 14, 0)
s = 159: (0, 23, 9, 8, 24, 6, 4, 8, 29, 21, 12, 0)
s = 160: (0, 32, 12, 7, 41, 6, 6, 10, 19, 13, 9, 0)
s = 161: (0, 45, 16, 9, 38, 8, 3, 12, 27, 25, 8, 0)
s = 162: (0, 36, 21, 6, 25, 7, 4, 11, 19, 10, 15, 0)
s = 163: (0, 37, 16, 8, 43, 7, 3, 16, 32, 17, 10, 0)
s = 164: (0, 36, 15, 4, 43, 5, 3, 11, 37, 16, 16, 0)
s = 165: (0, 45, 22, 7, 28, 6, 3, 12, 20, 11, 10, 0)
s = 166: (0, 23, 12, 7, 29, 7, 7, 8, 25, 19, 8, 0)
s = 167: (0, 28, 14, 6, 26, 5, 4, 7, 21, 10, 12, 0)
s = 168: (0, 33, 11, 11, 43, 5, 3, 10, 27, 8, 11, 0)
s = 169: (0, 36, 10, 7, 22, 6, 3, 6, 25, 21, 14, 0)
s = 170: (0, 67, 16, 6, 18, 5, 5, 8, 35, 24, 11, 0)
s = 171: (0, 43, 7, 5, 16, 8, 4, 8, 20, 20, 16, 0)
s = 172: (0, 48, 9, 8, 20, 6, 4, 10, 28, 11, 11, 0)
s = 173: (0, 37, 12, 7, 23, 5, 4, 8, 25, 13, 19, 0)
s = 174: (0, 28, 9, 6, 31, 6, 5, 12, 19, 13, 7, 0)
s = 175: (0, 44, 8, 7, 22, 4, 6, 5, 27, 22, 11, 0)
s = 176: (0, 28, 11, 8, 16, 7, 4, 8, 18, 10, 12, 0)
s = 177: (0, 27, 11, 7, 34, 7, 3, 12, 34, 15, 19, 0)
s = 178: (0, 30, 10, 5, 36, 6, 6, 8, 27, 19, 16, 0)
s = 179: (0, 52, 12, 9, 34, 4, 4, 7, 14, 14, 16, 0)
s = 180: (0, 44, 13, 6, 23, 7, 6, 7, 20, 15, 11, 0)
s = 181: (0, 27, 14, 7, 34, 5, 3, 5, 14, 13, 15, 0)
s = 182: (0, 29, 17, 5, 28, 6, 3, 5, 26, 21, 8, 0)
s = 183: (0, 31, 17, 5, 29, 6, 4, 10, 18, 18, 13, 0)
s = 184: (0, 35, 7, 7, 33, 7, 3, 6, 27, 13, 19, 0)
s = 185: (0, 31, 16, 8, 20, 7, 5, 6, 25, 13, 12, 0)
s = 186: (0, 25, 12, 7, 28, 7, 4, 8, 31, 13, 15, 0)
s = 187: (0, 19, 17, 9, 31, 8, 4, 10, 35, 15, 12, 0)
s = 188: (0, 30, 12, 8, 25, 7, 4, 6, 30, 11, 14, 0)
s = 189: (0, 26, 11, 6, 22, 6, 4, 6, 41, 13, 14, 0)
s = 190: (0, 52, 17, 6, 28, 5, 7, 8, 15, 17, 7, 0)
s = 191: (0, 36, 11, 7, 19, 8, 3, 12, 33, 20, 17, 0)
s = 192: (0, 28, 8, 6, 33, 11, 6, 8, 19, 21, 10, 0)
s = 193: (0, 35, 14, 8, 24, 5, 4, 8, 15, 9, 16, 0)
s = 194: (0, 46, 16, 7, 23, 6, 7, 6, 14, 14, 17, 0)
s = 195: (0, 44, 10, 5, 30, 5, 4, 7, 21, 19, 9, 0)
s = 196: (0, 19, 10, 7, 30, 6, 4, 10, 40, 11, 15, 0)
s = 197: (0, 54, 14, 10, 22, 9, 5, 10, 30, 14, 15, 0)
s = 198: (0, 34, 19, 5, 19, 4, 5, 7, 17, 19, 9, 0)
s = 199: (0, 37, 10, 5, 25, 7, 5, 6, 25, 14, 12, 0)
s = 200: (0, 27, 10, 6, 38, 6, 3, 12, 15, 12, 10, 0)
************************************************************************
ES/LS-VALUES:
jobnr.   ES(i)    LS(i)
------------------------------------------------------------------------
  0        0        0
  1        0       64
  2        0       64
  3        0       60
  4        1       62
  5        9       71
  6        7       72
  7        7       73
  8       13       75
  9       13       75
 10       11       76
 11       19       82
************************************************************************
BIG-M-VALUES:
M1 = 63, M2 = 245
************************************************************************
